
--- Job bchfcnet.gms Start 02/09/22 13:44:46 34.3.0 rac355f3 WEX-WEI x86 64bit/MS Windows
--- Applying:
    C:\GAMS\34\gmsprmNT.txt
--- GAMS Parameters defined
    Input C:\Users\dekhi\Desktop\gamsworld\FCNetLib\test\bchfcnet.gms
    PageSize 0
    ScrDir C:\Users\dekhi\Desktop\gamsworld\FCNetLib\test\225a\
    SysDir C:\GAMS\34\
    LogOption 3
    ErrMsg 1
    ErrorLog 99
    IDE 1
    ResLim 3600
    LstTitleLeftAligned 1
Licensee: Eval License                                   S211214|0002AW-GEN
          Ostfalia Hochschule fuer angewandte Wissenschaften        DCE1645
          C:\Users\dekhi\Documents\GAMS\gamslice.txt
          License Admin: Mohamed Ali Dekhil, dekhil.medali@gmail.com       
          Evaluation license: Not for commercial or production use
GAMS 34.3.0   Copyright (C) 1987-2021 GAMS Development. All rights reserved
--- Starting compilation
--- bchfcnet.gms(34) 2 Mb
--- . decl.gms(15) 2 Mb
--- bchfcnet.gms(38) 2 Mb
--- . p50x288.inc(626) 3 Mb
--- bchfcnet.gms(67) 3 Mb
--- . equs.gms(20) 3 Mb
--- bchfcnet.gms(97) 3 Mb
--- call rm -f bchout_i.gdx startcut.txt startheur.txt cuthist.gdx agap.txt rgap.txt cntfail.txt
--- bchfcnet.gms(118) 3 Mb
--- Starting execution: elapsed 0:00:00.087
--- bchfcnet.gms(684) 4 Mb
--- GDX File (execute_unload) C:\Users\dekhi\Desktop\gamsworld\FCNetLib\test\net.gdx
--- bchfcnet.gms(775) 4 Mb
--- GDXin=C:\Users\dekhi\Desktop\gamsworld\FCNetLib\test\points\p50x288.gdx
--- GDX File (execute_load) C:\Users\dekhi\Desktop\gamsworld\FCNetLib\test\points\p50x288.gdx
--- Generating MIP model master
--- bchfcnet.gms(779) 4 Mb
---   339 rows  577 columns  1,704 non-zeroes
---   288 discrete-columns
--- Executing CPLEX (Solvelink=2): elapsed 0:00:00.105

IBM ILOG CPLEX   34.3.0 rac355f3 Released Feb 25, 2021 WEI x86 64bit/MS Window

--- GAMS/Cplex Link licensed for continuous and discrete problems.

Reading parameter(s) from "C:\Users\dekhi\Desktop\gamsworld\FCNetLib\test\cplex.op2"
>>  mipstart 1
Finished reading from "C:\Users\dekhi\Desktop\gamsworld\FCNetLib\test\cplex.op2"

--- Space for names approximately 0.02 Mb
--- Use option 'names no' to turn use of names off
--- GMO memory 0.61 Mb (peak 0.61 Mb)
--- Dictionary memory 0.00 Mb
--- Cplex 20.1.0.0 link memory 0.02 Mb (peak 0.06 Mb)
--- Starting Cplex

Version identifier: 20.1.0.0 | 2020-11-10 | 9bedb6d68
CPXPARAM_Threads                                 1
CPXPARAM_MIP_Display                             4
CPXPARAM_TimeLimit                               3600
CPXPARAM_MIP_Tolerances_AbsMIPGap                0
CPXPARAM_MIP_Tolerances_MIPGap                   0
Generic callback                                 0x50
Processing 1 MIP starts.
MIP start 'm1' defined solution with objective 6134.0000.
1 of 1 MIP starts provided solutions.
MIP start 'm1' defined initial solution with objective 6134.0000.
Tried aggregator 1 time.
MIP Presolve eliminated 31 rows and 1 columns.
MIP Presolve added 62 rows and 0 columns.
Reduced MIP has 369 rows, 576 columns, and 1214 nonzeros.
Reduced MIP has 288 binaries, 0 generals, 0 SOSs, and 0 indicators.
Presolve time = 0.00 sec. (1.38 ticks)
Probing time = 0.00 sec. (0.07 ticks)
Tried aggregator 1 time.
Detecting symmetries...
Reduced MIP has 369 rows, 576 columns, and 1214 nonzeros.
Reduced MIP has 288 binaries, 0 generals, 0 SOSs, and 0 indicators.
Presolve time = 0.00 sec. (1.44 ticks)
Probing time = 0.00 sec. (0.07 ticks)
MIP emphasis: balance optimality and feasibility.
MIP search method: dynamic search.
Parallel mode: none, using 1 thread.
Tried aggregator 1 time.
LP Presolve eliminated 257 rows and 257 columns.
Aggregator did 31 substitutions.
Reduced LP has 81 rows, 288 columns, and 638 nonzeros.
Presolve time = 0.00 sec. (0.30 ticks)

Iteration log . . .
Iteration:     1   Dual objective     =            99.960000
Initializing dual steep norms . . .
Root relaxation solution time = 0.00 sec. (0.69 ticks)

        Nodes                                         Cuts/
   Node  Left     Objective  IInf  Best Integer    Best Bound    ItCnt     Gap

*     0+    0                         6134.0000        0.0000           100.00%
Found incumbent of value 6134.000000 after 0.00 sec. (4.40 ticks)
      0     0     4178.4780    34     6134.0000     4178.4780       57   31.88%
      0     0     5732.8211    30     6134.0000     Cuts: 118      126    6.54%
      0     0     5907.5236    44     6134.0000      Cuts: 78      179    3.69%
      0     0     5997.7777    38     6134.0000      Cuts: 66      231    2.22%
      0     0     6012.8458    46     6134.0000      Cuts: 68      260    1.98%
      0     0     6057.9159    42     6134.0000      Cuts: 68      310    1.24%
Detecting symmetries...
      0     0     6069.8423    50     6134.0000      Cuts: 62      364    1.05%
      0     0     6080.8376    34     6134.0000      Cuts: 62      411    0.87%
      0     0     6088.0705    43     6134.0000      Cuts: 38      451    0.75%
      0     0     6096.1346    34     6134.0000      Cuts: 22      492    0.62%
      0     0     6104.1100    31     6134.0000      Cuts: 35      519    0.49%
      0     0     6105.4744    40     6134.0000      Cuts: 11      542    0.47%
      0     0     6106.8526    42     6134.0000      Cuts: 47      566    0.44%
      0     0     6109.0013    32     6134.0000      Cuts: 42      593    0.41%
      0     0     6109.9524    40     6134.0000      Cuts: 26      614    0.39%
      0     0     6111.0111    35     6134.0000      Cuts: 14      629    0.37%
      0     0     6112.2323    45     6134.0000       Cuts: 6      644    0.35%
      0     0     6115.1637    26     6134.0000      Cuts: 57      679    0.31%
      0     0     6117.1368    46     6134.0000      Cuts: 25      718    0.27%
      0     0     6117.5071    32     6134.0000      Cuts: 27      740    0.27%
      0     0     6118.0461    41     6134.0000      Cuts: 17      758    0.26%
Detecting symmetries...
      0     2     6118.0461    41     6134.0000     6118.0469      758    0.26%
Elapsed time = 0.33 sec. (249.74 ticks, tree = 0.01 MB, solutions = 1)

Cover cuts applied:  20
Implied bound cuts applied:  4
Flow cuts applied:  66
Mixed integer rounding cuts applied:  29
Flow path cuts applied:  15
Zero-half cuts applied:  3
Multi commodity flow cuts applied:  7
Lift and project cuts applied:  1
Gomory fractional cuts applied:  24

Root node processing (before b&c):
  Real time             =    0.33 sec. (249.73 ticks)
Sequential b&c:
  Real time             =    0.01 sec. (11.79 ticks)
                          ------------
Total (root+branch&cut) =    0.34 sec. (261.52 ticks)

--- MIP status (101): integer optimal solution.
--- Cplex Time: 0.34sec (det. 261.52 ticks)

--- Fixing integer variables and solving final LP...

Version identifier: 20.1.0.0 | 2020-11-10 | 9bedb6d68
CPXPARAM_Advance                                 2
CPXPARAM_Threads                                 1
CPXPARAM_MIP_Display                             4
CPXPARAM_TimeLimit                               3600
CPXPARAM_MIP_Tolerances_AbsMIPGap                0
CPXPARAM_MIP_Tolerances_MIPGap                   0
Tried aggregator 1 time.
LP Presolve eliminated 338 rows and 577 columns.
All rows and columns eliminated.
Presolve time = 0.00 sec. (0.20 ticks)

--- Fixed MIP status (1): optimal.
--- Cplex Time: 0.00sec (det. 0.35 ticks)


Proven optimal solution
MIP Solution:         6134.000000    (1004 iterations, 14 nodes)
Final Solve:          6134.000000    (0 iterations)

Best possible:        6134.000000
Absolute gap:            0.000000
Relative gap:            0.000000

--- Reading solution for model master
*** Status: Normal completion
--- Job bchfcnet.gms Stop 02/09/22 13:44:47 elapsed 0:00:00.501
